131
100
34
18
17
47
5
15
23
46
20
30
17
24
12
8
9
13
33
35
11
16
19
1
33
43
13
24
17
32
6
12
38
31
30
50
48
31
24
6
13
1
38
17
29
13
10
6
1
26
7
3
15
7
32
11
11
19
39
4
23
5
36
14
29
3
36
37
2
43
46
20
49
33
38
45
42
46
36
7
19
32
46
42
32
22
16
39
4
15
50
19
27
50
40
3
37
46
20
12
13
18
2
25
5
3
14
18
1
8
36
46
21
44
16
5
31
15
17
26
46
26
1
13
25
10
30
21
13
23
19
16
39
